p cnf 47 61                 
1 27 0
-4 27 0
2 28 0
-5 28 0
3 29 0
-6 29 0
-27 -28 -29 30 0
-30 -31 0
-2 -1 -7 0
7 -11 0
-1 8 0
-2 8 0
1 2 -8 0
-8 -3 -9 0
9 -11 0
3 8 -10 0
10 -11 0
11 -31 0
-5 -4 -12 0
12 -16 0
-4 13 0
-5 13 0
4 5 -13 0
-13 -6 -14 0
14 -16 0
6 13 -15 0
15 -16 0
16 -31 0
-3 -5 24 0
-24 -26 0
-3 -4 23 0
-23 -26 0
-2 -6 22 0
-22 -26 0
-2 -4 20 0
-20 -26 0
-1 -6 19 0
-19 -26 0
-1 -5 18 0
-18 -26 0
26 -31 0
-1 2 -32 0
32 -38 0
-1 -2 33 0
1 2 33 0
-2 2 33 0
-4 5 -34 0
-33 34 -35 0
35 -38 0
38 -46 0
-2 3 -39 0
39 -45 0
-2 -3 40 0
2 3 40 0
-3 3 40 0
-5 6 -41 0
-40 41 -42 0
42 -45 0
45 -46 0
31 0
46 0
